  lattice_vector        12.84530179        0.00000000        0.00000000
  lattice_vector         0.00000000       13.34922920        0.00000000
  lattice_vector         0.00000000        0.00000000       60.00000000
            atom        -0.00325469        1.47431647       29.17906152  Cu
            atom         2.56381341        1.47561320       29.16945415  Cu
            atom         5.13827782        1.47768455       29.17248457  Cu
            atom         7.71151531        1.48443028       29.16339304  Cu
            atom        10.27644313        1.47753883       29.17604657  Cu
            atom         1.28199141        3.69880449       29.17017048  Cu
            atom         3.86579923        3.70917008       29.20213329  Cu
            atom         6.40574892        3.71004208       29.20369666  Cu
            atom         8.99679931        3.69657583       29.16795267  Cu
            atom        11.56107039        3.70130522       29.17921148  Cu
            atom        -0.00178363        5.92887003       29.18044361  Cu
            atom         2.56651492        5.92845208       29.17351371  Cu
            atom         5.13401498        5.90587398       29.20145165  Cu
            atom         7.71138922        5.93000491       29.16261869  Cu
            atom        10.27787480        5.92662977       29.17829509  Cu
            atom         1.28286500        8.15560825       29.18190331  Cu
            atom         3.85167581        8.15414006       29.16822171  Cu
            atom         6.41913615        8.15844697       29.15772713  Cu
            atom         8.99698582        8.15292375       29.16986445  Cu
            atom        11.56026712        8.15246604       29.18180029  Cu
            atom         0.00021111       10.37730717       29.18036777  Cu
            atom         2.56888013       10.37918081       29.18123670  Cu
            atom         5.13153129       10.38163578       29.16496775  Cu
            atom         7.70506804       10.38027968       29.15561016  Cu
            atom        10.28285853       10.37226534       29.16606123  Cu
            atom         1.28358962       12.60191373       29.18069309  Cu
            atom         3.85384265       12.60354750       29.18167194  Cu
            atom         6.42215446       12.61018328       29.16524681  Cu
            atom         8.99092795       12.60743007       29.16055276  Cu
            atom        11.55896280       12.59905536       29.17824056  Cu
            atom        -0.00810546       -0.01045061       31.25715451  Cu
            atom         2.56751561       -0.01545398       31.25933158  Cu
            atom         5.14513643       -0.01218040       31.26665384  Cu
            atom         7.70953761       -0.00723648       31.24294728  Cu
            atom        10.26841480       -0.00614837       31.24914497  Cu
            atom         1.28261302        2.21579078       31.25051649  Cu
            atom         3.84229829        2.18753288       31.22517551  Cu
            atom         6.43652616        2.18816085       31.23187164  Cu
            atom         8.98850135        2.21364353       31.26350781  Cu
            atom        11.55590053        2.21527941       31.25408479  Cu
            atom        -0.00604092        4.44380310       31.25348040  Cu
            atom         2.54346187        4.44765198       31.23142486  Cu
            atom         5.13239012        4.44571942       31.36642243  Cu
            atom         7.73880973        4.45060314       31.21049829  Cu
            atom        10.27704810        4.44500400       31.25662572  Cu
            atom         1.28168274        6.67367448       31.25666357  Cu
            atom         3.84358242        6.68959756       31.23426587  Cu
            atom         6.43927762        6.69187736       31.20182610  Cu
            atom         8.99313575        6.68048902       31.25413487  Cu
            atom        11.55468931        6.67479277       31.25903822  Cu
            atom        -0.00708807        8.89718945       31.26097666  Cu
            atom         2.57108633        8.90058803       31.26046213  Cu
            atom         5.14036136        8.90155406       31.23749237  Cu
            atom         7.71357612        8.90420851       31.22471669  Cu
            atom        10.26616802        8.90043821       31.27544545  Cu
            atom         1.28229076       11.11739101       31.25588189  Cu
            atom         3.86227902       11.11764750       31.26618559  Cu
            atom         6.42064107       11.12133678       31.21408951  Cu
            atom         8.99529909       11.11728006       31.19949084  Cu
            atom        11.55064516       11.11584112       31.26347531  Cu
            atom         0.00000000        0.00000000       25.00000000  Cu
            atom         2.56906036        0.00000000       25.00000000  Cu
            atom         5.13812071        0.00000000       25.00000000  Cu
            atom         7.70718107        0.00000000       25.00000000  Cu
            atom        10.27624143        0.00000000       25.00000000  Cu
            atom         1.28453018        2.22487153       25.00000000  Cu
            atom         3.85359054        2.22487153       25.00000000  Cu
            atom         6.42265089        2.22487153       25.00000000  Cu
            atom         8.99171125        2.22487153       25.00000000  Cu
            atom        11.56077161        2.22487153       25.00000000  Cu
            atom         0.00000000        4.44974307       25.00000000  Cu
            atom         2.56906036        4.44974307       25.00000000  Cu
            atom         5.13812071        4.44974307       25.00000000  Cu
            atom         7.70718107        4.44974307       25.00000000  Cu
            atom        10.27624143        4.44974307       25.00000000  Cu
            atom         1.28453018        6.67461460       25.00000000  Cu
            atom         3.85359054        6.67461460       25.00000000  Cu
            atom         6.42265089        6.67461460       25.00000000  Cu
            atom         8.99171125        6.67461460       25.00000000  Cu
            atom        11.56077161        6.67461460       25.00000000  Cu
            atom         0.00000000        8.89948613       25.00000000  Cu
            atom         2.56906036        8.89948613       25.00000000  Cu
            atom         5.13812071        8.89948613       25.00000000  Cu
            atom         7.70718107        8.89948613       25.00000000  Cu
            atom        10.27624143        8.89948613       25.00000000  Cu
            atom         1.28453018       11.12435767       25.00000000  Cu
            atom         3.85359054       11.12435767       25.00000000  Cu
            atom         6.42265089       11.12435767       25.00000000  Cu
            atom         8.99171125       11.12435767       25.00000000  Cu
            atom        11.56077161       11.12435767       25.00000000  Cu
            atom         1.28453018        0.74162384       27.09762900  Cu
            atom         3.85359054        0.74162384       27.09762900  Cu
            atom         6.42265089        0.74162384       27.09762900  Cu
            atom         8.99171125        0.74162384       27.09762900  Cu
            atom        11.56077161        0.74162384       27.09762900  Cu
            atom         0.00000000        2.96649538       27.09762900  Cu
            atom         2.56906036        2.96649538       27.09762900  Cu
            atom         5.13812071        2.96649538       27.09762900  Cu
            atom         7.70718107        2.96649538       27.09762900  Cu
            atom        10.27624143        2.96649538       27.09762900  Cu
            atom         1.28453018        5.19136691       27.09762900  Cu
            atom         3.85359054        5.19136691       27.09762900  Cu
            atom         6.42265089        5.19136691       27.09762900  Cu
            atom         8.99171125        5.19136691       27.09762900  Cu
            atom        11.56077161        5.19136691       27.09762900  Cu
            atom         0.00000000        7.41623844       27.09762900  Cu
            atom         2.56906036        7.41623844       27.09762900  Cu
            atom         5.13812071        7.41623844       27.09762900  Cu
            atom         7.70718107        7.41623844       27.09762900  Cu
            atom        10.27624143        7.41623844       27.09762900  Cu
            atom         1.28453018        9.64110998       27.09762900  Cu
            atom         3.85359054        9.64110998       27.09762900  Cu
            atom         6.42265089        9.64110998       27.09762900  Cu
            atom         8.99171125        9.64110998       27.09762900  Cu
            atom        11.56077161        9.64110998       27.09762900  Cu
            atom         0.00000000       11.86598151       27.09762900  Cu
            atom         2.56906036       11.86598151       27.09762900  Cu
            atom         5.13812071       11.86598151       27.09762900  Cu
            atom         7.70718107       11.86598151       27.09762900  Cu
            atom        10.27624143       11.86598151       27.09762900  Cu
